c CNF file corresponding to a (partial) station packing problem.
p cnf 1112 238
1 2 3 4 5 6 7 8 9 10 11 12 13 14 0
-1 -2 0
-1 -3 0
-1 -4 0
-1 -5 0
-1 -6 0
-1 -7 0
-1 -8 0
-1 -9 0
-1 -10 0
-1 -11 0
-1 -12 0
-1 -13 0
-1 -14 0
-2 -3 0
-2 -4 0
-2 -5 0
-2 -6 0
-2 -7 0
-2 -8 0
-2 -9 0
-2 -10 0
-2 -11 0
-2 -12 0
-2 -13 0
-2 -14 0
-3 -4 0
-3 -5 0
-3 -6 0
-3 -7 0
-3 -8 0
-3 -9 0
-3 -10 0
-3 -11 0
-3 -12 0
-3 -13 0
-3 -14 0
-4 -5 0
-4 -6 0
-4 -7 0
-4 -8 0
-4 -9 0
-4 -10 0
-4 -11 0
-4 -12 0
-4 -13 0
-4 -14 0
-5 -6 0
-5 -7 0
-5 -8 0
-5 -9 0
-5 -10 0
-5 -11 0
-5 -12 0
-5 -13 0
-5 -14 0
-6 -7 0
-6 -8 0
-6 -9 0
-6 -10 0
-6 -11 0
-6 -12 0
-6 -13 0
-6 -14 0
-7 -8 0
-7 -9 0
-7 -10 0
-7 -11 0
-7 -12 0
-7 -13 0
-7 -14 0
-8 -9 0
-8 -10 0
-8 -11 0
-8 -12 0
-8 -13 0
-8 -14 0
-9 -10 0
-9 -11 0
-9 -12 0
-9 -13 0
-9 -14 0
-10 -11 0
-10 -12 0
-10 -13 0
-10 -14 0
-11 -12 0
-11 -13 0
-11 -14 0
-12 -13 0
-12 -14 0
-13 -14 0
-8 -1109 0
-1103 -4 0
-1 -1098 0
-10 -1108 0
-1104 -9 0
-1110 -13 0
-1098 -2 0
-1109 -11 0
-5 -1100 0
-1103 -3 0
-1111 -12 0
-14 -1110 0
-1106 -11 0
-1112 -14 0
-1111 -10 0
-1111 -13 0
-4 -1102 0
-11 -1108 0
-8 -1106 0
-1112 -12 0
-3 -1100 0
-1104 -6 0
-1105 -4 0
-1103 -5 0
-12 -1110 0
-1 -1099 0
-9 -1107 0
-1105 -6 0
-13 -1108 0
-1 -1101 0
-8 -1107 0
-3 -1101 0
-1105 -7 0
-10 -1109 0
-7 -1104 0
-2 -1099 0
-1102 -5 0
-6 -1107 0
-1106 -9 0
-7 -1102 0
1098 1099 1100 1101 1102 1103 1104 1105 1106 1107 1108 1109 1110 1111 1112 0
-1098 -1099 0
-1098 -1100 0
-1098 -1101 0
-1098 -1102 0
-1098 -1103 0
-1098 -1104 0
-1098 -1105 0
-1098 -1106 0
-1098 -1107 0
-1098 -1108 0
-1098 -1109 0
-1098 -1110 0
-1098 -1111 0
-1098 -1112 0
-1099 -1100 0
-1099 -1101 0
-1099 -1102 0
-1099 -1103 0
-1099 -1104 0
-1099 -1105 0
-1099 -1106 0
-1099 -1107 0
-1099 -1108 0
-1099 -1109 0
-1099 -1110 0
-1099 -1111 0
-1099 -1112 0
-1100 -1101 0
-1100 -1102 0
-1100 -1103 0
-1100 -1104 0
-1100 -1105 0
-1100 -1106 0
-1100 -1107 0
-1100 -1108 0
-1100 -1109 0
-1100 -1110 0
-1100 -1111 0
-1100 -1112 0
-1101 -1102 0
-1101 -1103 0
-1101 -1104 0
-1101 -1105 0
-1101 -1106 0
-1101 -1107 0
-1101 -1108 0
-1101 -1109 0
-1101 -1110 0
-1101 -1111 0
-1101 -1112 0
-1102 -1103 0
-1102 -1104 0
-1102 -1105 0
-1102 -1106 0
-1102 -1107 0
-1102 -1108 0
-1102 -1109 0
-1102 -1110 0
-1102 -1111 0
-1102 -1112 0
-1103 -1104 0
-1103 -1105 0
-1103 -1106 0
-1103 -1107 0
-1103 -1108 0
-1103 -1109 0
-1103 -1110 0
-1103 -1111 0
-1103 -1112 0
-1104 -1105 0
-1104 -1106 0
-1104 -1107 0
-1104 -1108 0
-1104 -1109 0
-1104 -1110 0
-1104 -1111 0
-1104 -1112 0
-1105 -1106 0
-1105 -1107 0
-1105 -1108 0
-1105 -1109 0
-1105 -1110 0
-1105 -1111 0
-1105 -1112 0
-1106 -1107 0
-1106 -1108 0
-1106 -1109 0
-1106 -1110 0
-1106 -1111 0
-1106 -1112 0
-1107 -1108 0
-1107 -1109 0
-1107 -1110 0
-1107 -1111 0
-1107 -1112 0
-1108 -1109 0
-1108 -1110 0
-1108 -1111 0
-1108 -1112 0
-1109 -1110 0
-1109 -1111 0
-1109 -1112 0
-1110 -1111 0
-1110 -1112 0
-1111 -1112 0
